DIMACS/bio-CE-GT.txt
p edge 925 3239
e 1 2
e 1 3
e 1 4
e 1 5
e 6 7
e 6 8
e 6 9
e 6 10
e 6 11
e 6 12
e 6 13
e 6 14
e 6 15
e 6 16
e 17 18
e 17 19
e 17 20
e 17 21
e 17 22
e 17 23
e 17 24
e 25 26
e 25 27
e 25 28
e 13 25
e 25 29
e 25 30
e 25 31
e 25 32
e 33 34
e 33 35
e 33 36
e 33 37
e 33 38
e 26 39
e 39 40
e 39 41
e 39 42
e 43 44
e 43 45
e 46 47
e 46 48
e 46 49
e 50 51
e 50 52
e 53 54
e 53 55
e 56 57
e 56 58
e 56 59
e 56 60
e 18 61
e 61 62
e 19 61
e 61 63
e 61 64
e 20 61
e 21 61
e 61 65
e 61 66
e 61 67
e 61 68
e 61 69
e 61 70
e 61 71
e 61 72
e 61 73
e 61 74
e 61 75
e 61 76
e 61 77
e 78 79
e 78 80
e 81 82
e 81 83
e 81 84
e 81 85
e 71 81
e 81 86
e 81 87
e 81 88
e 89 90
e 89 91
e 89 92
e 89 93
e 12 89
e 89 94
e 89 95
e 89 96
e 89 97
e 89 98
e 89 99
e 89 100
e 89 101
e 102 103
e 8 102
e 88 102
e 104 105
e 51 104
e 103 104
e 104 106
e 8 104
e 13 104
e 104 107
e 108 109
e 108 110
e 54 111
e 55 111
e 112 113
e 112 114
e 112 115
e 112 116
e 112 117
e 112 118
e 112 119
e 120 121
e 120 122
e 120 123
e 120 124
e 120 125
e 120 126
e 120 127
e 21 120
e 120 128
e 120 129
e 120 130
e 120 131
e 120 132
e 71 120
e 120 133
e 120 134
e 120 135
e 74 120
e 120 136
e 120 137
e 120 138
e 120 139
e 88 120
e 16 120
e 34 140
e 37 140
e 38 140
e 140 141
e 142 143
e 93 142
e 142 144
e 142 145
e 103 146
e 8 146
e 13 146
e 88 146
e 8 147
e 13 147
e 8 148
e 18 149
e 18 122
e 18 150
e 18 57
e 18 151
e 18 63
e 18 21
e 18 152
e 18 66
e 18 69
e 18 79
e 18 153
e 18 71
e 18 154
e 18 155
e 18 96
e 18 41
e 18 73
e 18 74
e 18 75
e 18 24
e 18 156
e 18 76
e 18 137
e 18 88
e 18 77
e 18 60
e 18 42
e 18 80
e 26 157
e 157 158
e 40 157
e 157 159
e 157 160
e 157 161
e 42 157
e 162 163
e 47 162
e 162 164
e 162 165
e 162 166
e 162 167
e 162 168
e 162 169
e 162 170
e 162 171
e 162 172
e 162 173
e 162 174
e 162 175
e 162 176
e 162 177
e 16 162
e 162 178
e 179 180
e 179 181
e 179 182
e 156 179
e 179 183
e 184 185
e 184 186
e 184 187
e 184 188
e 184 189
e 184 190
e 184 191
e 184 192
e 184 193
e 184 194
e 41 184
e 184 195
e 184 196
e 184 197
e 198 199
e 200 201
e 144 200
e 145 200
e 48 202
e 180 182
e 156 180
e 185 187
e 185 189
e 185 192
e 203 204
e 203 205
e 52 105
e 105 206
e 105 207
e 105 208
e 105 209
e 9 105
e 105 210
e 105 211
e 105 212
e 105 213
e 105 214
e 105 215
e 105 145
e 105 216
e 105 217
e 105 218
e 45 105
e 16 105
e 219 220
e 54 219
e 219 221
e 219 222
e 219 223
e 219 224
e 219 225
e 219 226
e 219 227
e 55 219
e 219 228
e 219 229
e 219 230
e 62 63
e 66 149
e 149 231
e 149 232
e 137 149
e 149 161
e 44 233
e 45 233
e 234 235
e 15 234
e 236 237
e 236 238
e 52 236
e 236 239
e 34 240
e 35 240
e 37 240
e 38 240
e 141 240
e 34 35
e 34 106
e 34 241
e 34 242
e 34 243
e 34 244
e 34 245
e 34 36
e 34 246
e 34 141
e 34 247
e 34 248
e 249 250
e 145 249
e 79 251
e 80 251
e 252 253
e 48 252
e 252 254
e 252 255
e 256 257
e 256 258
e 103 259
e 8 259
e 30 259
e 32 259
e 220 221
e 220 260
e 220 261
e 220 225
e 55 220
e 237 253
e 237 262
e 237 238
e 237 263
e 188 237
e 115 237
e 117 237
e 237 264
e 107 237
e 237 239
e 32 237
e 16 237
e 71 265
e 266 267
e 242 266
e 266 268
e 211 266
e 212 266
e 11 266
e 266 269
e 266 270
e 218 266
e 51 271
e 52 271
e 8 271
e 13 271
e 119 271
e 88 271
e 218 271
e 16 271
e 272 273
e 212 272
e 11 272
e 272 274
e 272 275
e 218 272
e 51 121
e 51 276
e 51 277
e 51 278
e 51 150
e 51 279
e 51 280
e 51 52
e 51 281
e 51 282
e 51 283
e 51 284
e 51 285
e 51 286
e 51 287
e 51 288
e 51 289
e 51 290
e 51 235
e 51 291
e 51 292
e 7 51
e 51 293
e 51 294
e 51 263
e 51 295
e 51 296
e 8 51
e 51 297
e 51 298
e 51 299
e 51 300
e 10 51
e 51 301
e 51 302
e 51 303
e 51 304
e 51 143
e 51 211
e 51 305
e 51 257
e 51 213
e 51 214
e 51 306
e 51 307
e 51 308
e 51 309
e 51 310
e 12 51
e 51 311
e 51 312
e 13 51
e 51 313
e 51 314
e 51 315
e 51 316
e 51 317
e 51 318
e 51 319
e 51 320
e 51 321
e 51 322
e 51 323
e 51 324
e 51 216
e 51 325
e 51 260
e 51 326
e 51 327
e 51 328
e 51 107
e 51 329
e 51 330
e 51 331
e 51 332
e 51 333
e 51 97
e 51 334
e 51 335
e 51 226
e 51 336
e 51 239
e 51 337
e 51 118
e 51 119
e 31 51
e 51 338
e 51 339
e 51 340
e 51 341
e 51 342
e 51 343
e 51 344
e 51 345
e 51 346
e 51 101
e 51 248
e 51 347
e 16 51
e 19 151
e 19 21
e 19 66
e 19 22
e 19 67
e 19 154
e 19 73
e 19 77
e 348 349
e 348 350
e 348 351
e 47 352
e 48 352
e 353 354
e 91 353
e 103 121
e 121 278
e 52 121
e 26 121
e 106 121
e 8 121
e 121 244
e 13 121
e 71 121
e 121 225
e 121 355
e 88 121
e 16 121
e 356 357
e 356 358
e 44 359
e 359 360
e 45 359
e 361 362
e 361 363
e 364 365
e 262 366
e 354 366
e 26 276
e 8 276
e 119 276
e 16 276
e 367 368
e 115 367
e 369 370
e 369 371
e 115 372
e 117 372
e 107 372
e 373 374
e 373 375
e 13 373
e 119 373
e 16 373
e 103 278
e 103 281
e 103 376
e 103 282
e 103 377
e 103 284
e 103 287
e 103 378
e 103 379
e 103 380
e 103 381
e 8 103
e 103 382
e 103 383
e 103 384
e 103 385
e 103 386
e 10 103
e 103 387
e 103 388
e 103 143
e 103 389
e 103 390
e 103 305
e 103 391
e 103 311
e 103 313
e 103 392
e 103 393
e 103 323
e 103 260
e 103 394
e 103 395
e 103 396
e 103 397
e 103 398
e 103 399
e 103 400
e 103 401
e 103 119
e 103 342
e 103 343
e 103 402
e 103 403
e 88 103
e 103 404
e 103 405
e 103 406
e 103 407
e 238 253
e 253 408
e 47 253
e 235 253
e 253 273
e 7 253
e 253 263
e 8 253
e 253 409
e 253 410
e 253 268
e 253 411
e 211 253
e 212 253
e 253 412
e 253 275
e 48 253
e 253 258
e 49 253
e 253 413
e 253 414
e 253 415
e 107 253
e 15 253
e 253 416
e 239 253
e 118 253
e 32 253
e 253 344
e 253 417
e 218 253
e 177 253
e 16 253
e 52 418
e 13 418
e 122 419
e 122 420
e 71 122
e 88 122
e 122 404
e 421 422
e 421 423
e 47 424
e 48 424
e 44 163
e 163 360
e 163 177
e 45 163
e 238 262
e 262 354
e 235 262
e 7 262
e 262 425
e 262 426
e 262 427
e 262 409
e 262 268
e 262 428
e 262 429
e 262 264
e 15 262
e 262 430
e 262 431
e 262 432
e 235 238
e 238 291
e 238 425
e 8 238
e 238 268
e 238 411
e 238 428
e 238 429
e 238 433
e 238 351
e 238 416
e 238 430
e 238 434
e 118 238
e 231 238
e 238 340
e 232 238
e 238 417
e 238 431
e 161 238
e 238 432
e 52 123
e 13 123
e 71 123
e 88 123
e 52 435
e 435 436
e 435 437
e 435 438
e 435 439
e 143 435
e 211 435
e 435 440
e 248 435
e 218 435
e 441 442
e 429 441
e 12 441
e 13 441
e 441 443
e 117 441
e 441 444
e 16 441
e 445 446
e 445 447
e 445 448
e 93 445
e 445 449
e 145 445
e 445 450
e 35 437
e 35 106
e 35 207
e 35 241
e 35 243
e 35 451
e 35 127
e 35 427
e 35 214
e 35 244
e 35 245
e 35 36
e 35 452
e 35 370
e 35 453
e 35 371
e 35 454
e 35 239
e 35 37
e 35 38
e 35 141
e 35 100
e 35 455
e 35 247
e 35 456
e 35 248
e 257 457
e 27 457
e 457 458
e 457 459
e 457 460
e 317 457
e 360 457
e 457 461
e 173 457
e 457 462
e 45 457
e 186 463
e 186 189
e 186 190
e 186 192
e 186 193
e 186 195
e 186 464
e 368 465
e 115 465
e 274 466
e 216 466
e 217 466
e 218 466
e 16 466
e 419 467
e 71 467
e 88 467
e 8 277
e 13 277
e 119 277
e 88 277
e 218 277
e 16 277
e 52 278
e 26 278
e 106 278
e 8 278
e 13 278
e 278 370
e 225 278
e 119 278
e 278 355
e 88 278
e 218 278
e 16 278
e 468 469
e 374 468
e 468 470
e 468 471
e 468 472
e 468 473
e 124 474
e 124 475
e 21 124
e 124 129
e 124 476
e 124 131
e 124 477
e 71 124
e 124 133
e 76 124
e 88 124
e 124 478
e 124 479
e 52 150
e 88 150
e 16 150
e 474 480
e 66 474
e 96 474
e 88 474
e 474 481
e 474 479
e 13 279
e 13 280
e 52 54
e 52 284
e 26 52
e 52 290
e 52 291
e 7 52
e 52 482
e 52 294
e 52 263
e 52 296
e 8 52
e 52 382
e 52 383
e 52 114
e 52 298
e 52 208
e 52 483
e 52 299
e 52 300
e 10 52
e 52 210
e 52 301
e 52 302
e 52 303
e 52 304
e 52 388
e 52 484
e 52 143
e 52 115
e 52 305
e 52 257
e 52 68
e 52 485
e 52 486
e 52 487
e 52 488
e 52 214
e 27 52
e 52 306
e 52 307
e 52 308
e 52 489
e 52 310
e 12 52
e 52 312
e 13 52
e 52 490
e 52 491
e 52 492
e 52 317
e 52 318
e 52 319
e 52 393
e 52 493
e 52 320
e 52 322
e 52 494
e 52 216
e 52 325
e 52 260
e 15 52
e 52 495
e 52 332
e 52 333
e 52 193
e 30 52
e 52 217
e 52 336
e 52 496
e 52 239
e 52 497
e 52 118
e 52 119
e 31 52
e 52 338
e 52 339
e 52 340
e 32 52
e 52 341
e 52 343
e 52 88
e 52 345
e 52 431
e 52 346
e 52 101
e 52 498
e 52 248
e 52 218
e 52 499
e 52 347
e 16 52
e 500 501
e 16 500
e 54 502
e 54 503
e 26 54
e 54 504
e 54 221
e 54 505
e 54 506
e 54 222
e 54 223
e 54 507
e 54 508
e 54 509
e 54 225
e 54 226
e 54 227
e 54 55
e 54 229
e 54 230
e 16 54
e 71 125
e 88 125
e 125 404
e 5 510
e 158 511
e 231 511
e 232 511
e 161 511
e 8 281
e 13 281
e 88 281
e 446 447
e 446 449
e 145 446
e 80 446
e 191 463
e 192 463
e 194 463
e 195 463
e 16 463
e 44 512
e 45 512
e 47 513
e 155 513
e 419 514
e 71 514
e 88 514
e 502 515
e 502 503
e 502 516
e 502 517
e 502 518
e 502 505
e 223 502
e 502 519
e 502 509
e 502 520
e 502 521
e 502 522
e 230 502
e 178 502
e 523 524
e 523 525
e 523 526
e 523 527
e 368 528
e 188 368
e 115 368
e 368 529
e 368 530
e 388 531
e 531 532
e 47 533
e 48 533
e 199 534
e 535 536
e 535 537
e 535 538
e 403 535
e 57 539
e 539 540
e 539 541
e 515 516
e 515 518
e 505 515
e 515 519
e 515 542
e 515 521
e 515 522
e 230 515
e 436 439
e 143 436
e 503 518
e 503 519
e 365 503
e 503 521
e 7 543
e 543 544
e 15 543
e 16 543
e 447 545
e 144 447
e 250 447
e 244 447
e 79 447
e 447 449
e 145 447
e 447 450
e 60 447
e 80 447
e 408 411
e 88 376
e 47 546
e 48 546
e 26 282
e 8 282
e 188 282
e 257 282
e 13 282
e 282 547
e 282 548
e 161 282
e 247 282
e 218 282
e 16 282
e 115 528
e 8 549
e 13 549
e 88 549
e 8 377
e 8 283
e 13 283
e 550 551
e 552 553
e 552 554
e 16 206
e 555 556
e 555 557
e 558 559
e 558 560
e 91 354
e 354 426
e 354 561
e 354 562
e 449 545
e 410 563
e 563 564
e 217 563
e 488 565
e 565 566
e 26 284
e 8 284
e 13 284
e 107 284
e 119 284
e 88 284
e 218 284
e 16 284
e 567 568
e 567 569
e 26 47
e 26 286
e 26 290
e 26 291
e 26 294
e 26 263
e 26 296
e 8 26
e 26 297
e 26 383
e 26 298
e 26 299
e 26 300
e 10 26
e 26 302
e 26 303
e 26 304
e 26 388
e 26 143
e 26 211
e 26 305
e 26 257
e 11 26
e 26 213
e 26 214
e 26 40
e 26 27
e 26 308
e 26 28
e 26 412
e 26 429
e 26 317
e 26 318
e 26 393
e 26 493
e 26 320
e 26 260
e 26 160
e 26 332
e 26 570
e 26 333
e 26 548
e 26 226
e 26 336
e 26 118
e 26 31
e 26 339
e 26 341
e 26 342
e 26 343
e 26 571
e 26 344
e 26 345
e 26 346
e 26 101
e 26 248
e 26 347
e 16 26
e 26 572
e 357 358
e 47 573
e 47 290
e 47 207
e 47 574
e 8 47
e 47 167
e 47 575
e 47 576
e 47 577
e 47 578
e 47 579
e 47 211
e 47 169
e 47 390
e 47 305
e 47 580
e 47 257
e 47 419
e 11 47
e 47 581
e 47 582
e 47 213
e 47 583
e 47 458
e 47 170
e 47 584
e 47 48
e 47 585
e 47 49
e 47 586
e 47 587
e 47 414
e 47 588
e 47 589
e 47 171
e 47 155
e 47 590
e 47 591
e 47 592
e 47 593
e 47 594
e 47 595
e 47 596
e 47 597
e 32 47
e 47 598
e 47 173
e 47 599
e 47 600
e 47 601
e 47 602
e 47 603
e 47 604
e 47 605
e 47 606
e 47 607
e 47 255
e 47 608
e 47 218
e 47 609
e 45 47
e 16 47
e 610 611
e 305 610
e 610 612
e 90 92
e 90 93
e 90 97
e 90 99
e 90 100
e 44 164
e 164 177
e 45 164
e 8 285
e 13 285
e 8 286
e 13 286
e 88 286
e 16 286
e 63 613
e 613 614
e 44 615
e 615 616
e 615 617
e 615 618
e 8 287
e 13 287
e 13 288
e 8 378
e 88 378
e 44 165
e 165 177
e 45 165
e 227 619
e 619 620
e 106 437
e 437 438
e 143 437
e 227 437
e 437 620
e 516 517
e 516 518
e 505 516
e 275 516
e 516 621
e 516 520
e 230 516
e 106 451
e 106 427
e 106 518
e 106 214
e 106 244
e 106 452
e 106 370
e 106 371
e 106 454
e 37 106
e 38 106
e 100 106
e 106 622
e 106 455
e 106 247
e 106 456
e 106 248
e 16 106
e 8 623
e 8 379
e 8 289
e 13 289
e 267 624
e 241 267
e 242 267
e 267 383
e 243 267
e 267 268
e 267 625
e 267 270
e 246 267
e 267 626
e 267 350
e 267 627
e 267 628
e 226 267
e 38 267
e 267 629
e 141 267
e 267 630
e 267 631
e 48 573
e 8 380
e 380 632
e 312 380
e 13 380
e 380 633
e 88 380
e 8 290
e 290 634
e 13 290
e 290 318
e 226 290
e 119 290
e 290 599
e 88 290
e 218 290
e 16 290
e 235 291
e 7 235
e 8 235
e 235 258
e 235 433
e 235 328
e 15 235
e 235 430
e 235 239
e 235 635
e 235 636
e 235 340
e 232 235
e 235 620
e 218 235
e 235 637
e 524 638
e 526 638
e 527 638
e 638 639
e 638 640
e 7 273
e 273 641
e 8 273
e 158 273
e 9 273
e 273 642
e 211 273
e 212 273
e 273 544
e 11 273
e 273 275
e 273 415
e 273 322
e 273 643
e 15 273
e 119 273
e 273 644
e 273 645
e 273 646
e 218 273
e 16 273
e 291 425
e 8 291
e 114 291
e 291 611
e 213 291
e 291 306
e 13 291
e 291 413
e 119 291
e 291 612
e 291 417
e 291 647
e 291 431
e 218 291
e 16 291
e 570 648
e 42 648
e 197 648
e 57 91
e 57 540
e 57 67
e 57 93
e 57 541
e 57 59
e 57 77
e 57 60
e 649 650
e 649 651
e 649 652
e 2 653
e 2 3
e 2 654
e 2 655
e 2 656
e 657 658
e 657 659
e 657 660
e 657 661
e 242 624
e 624 662
e 243 624
e 624 629
e 91 540
e 91 92
e 91 93
e 91 541
e 91 97
e 91 110
e 71 663
e 374 469
e 115 469
e 469 471
e 664 665
e 664 666
e 664 667
e 561 664
e 664 668
e 664 669
e 562 664
e 113 114
e 113 115
e 113 117
e 113 118
e 55 113
e 113 670
e 13 292
e 671 672
e 671 673
e 672 673
e 7 207
e 7 8
e 7 268
e 7 544
e 7 11
e 7 213
e 7 275
e 7 13
e 7 15
e 7 119
e 7 646
e 7 674
e 7 16
e 115 482
e 8 293
e 13 293
e 88 381
e 44 166
e 166 177
e 45 166
e 675 676
e 675 677
e 678 679
e 678 680
e 211 438
e 438 440
e 248 438
e 218 438
e 312 681
e 633 681
e 681 682
e 8 207
e 207 544
e 44 207
e 207 275
e 48 207
e 207 216
e 107 207
e 15 207
e 30 207
e 207 217
e 119 207
e 32 207
e 207 218
e 207 683
e 45 207
e 16 207
e 20 151
e 66 151
e 73 151
e 137 151
e 144 201
e 145 201
e 201 684
e 241 242
e 241 685
e 241 245
e 37 241
e 38 241
e 48 574
e 188 641
e 641 659
e 115 641
e 11 641
e 307 641
e 223 641
e 472 641
e 641 686
e 242 687
e 242 688
e 242 662
e 242 243
e 242 268
e 242 625
e 242 689
e 242 270
e 242 690
e 242 246
e 242 626
e 242 350
e 242 627
e 242 628
e 242 691
e 242 692
e 226 242
e 242 693
e 38 242
e 55 242
e 242 629
e 141 242
e 242 630
e 242 631
e 268 687
e 628 687
e 694 695
e 77 694
e 63 696
e 21 63
e 63 66
e 63 67
e 63 614
e 63 697
e 63 449
e 63 154
e 24 63
e 63 77
e 449 696
e 154 696
e 696 698
e 13 425
e 425 472
e 71 699
e 8 294
e 294 307
e 16 294
e 700 701
e 697 700
e 702 703
e 702 704
e 8 263
e 188 263
e 263 705
e 263 643
e 263 594
e 255 263
e 218 263
e 16 263
e 58 59
e 92 429
e 92 706
e 92 432
e 92 101
e 13 295
e 8 296
e 13 296
e 119 296
e 88 296
e 218 296
e 16 296
e 8 382
e 8 297
e 8 383
e 8 298
e 8 188
e 8 707
e 8 9
e 8 409
e 8 299
e 8 300
e 8 386
e 8 10
e 8 387
e 8 302
e 8 303
e 8 304
e 8 388
e 8 143
e 8 389
e 8 708
e 8 211
e 8 390
e 8 305
e 8 257
e 8 11
e 8 213
e 8 214
e 8 476
e 8 27
e 8 308
e 8 309
e 8 489
e 8 412
e 8 310
e 8 391
e 8 311
e 8 312
e 8 13
e 8 490
e 8 313
e 8 314
e 8 709
e 8 258
e 8 316
e 8 710
e 8 317
e 8 319
e 8 393
e 8 493
e 8 320
e 8 413
e 8 414
e 8 321
e 8 322
e 8 323
e 8 260
e 8 711
e 8 326
e 8 327
e 8 712
e 8 394
e 8 395
e 8 15
e 8 519
e 8 330
e 8 396
e 8 331
e 8 332
e 8 713
e 8 714
e 8 397
e 8 715
e 8 333
e 8 97
e 8 334
e 8 716
e 8 400
e 8 401
e 8 335
e 8 548
e 8 226
e 8 336
e 8 118
e 8 119
e 8 635
e 8 31
e 8 472
e 8 339
e 8 340
e 8 341
e 8 342
e 8 343
e 8 717
e 8 137
e 8 571
e 8 344
e 8 88
e 8 345
e 8 431
e 8 346
e 8 101
e 8 498
e 8 248
e 8 407
e 8 347
e 8 16
e 382 419
e 88 382
e 16 382
e 653 655
e 628 688
e 13 297
e 88 297
e 16 297
e 13 383
e 383 628
e 88 383
e 16 383
e 673 718
e 718 719
e 101 718
e 44 720
e 45 720
e 188 721
e 115 721
e 107 721
e 114 115
e 114 117
e 114 119
e 49 167
e 167 177
e 167 722
e 45 167
e 145 448
e 226 504
e 188 723
e 107 723
e 723 724
e 158 211
e 158 257
e 158 725
e 158 726
e 158 727
e 158 728
e 158 231
e 158 729
e 158 161
e 158 218
e 64 71
e 730 731
e 730 732
e 730 733
e 730 734
e 730 735
e 730 736
e 730 737
e 730 738
e 665 666
e 665 667
e 665 739
e 561 665
e 665 668
e 665 669
e 562 665
e 665 740
e 226 741
e 16 741
e 676 677
e 13 298
e 119 298
e 88 298
e 16 298
e 187 188
e 187 189
e 187 488
e 187 498
e 187 196
e 409 426
e 426 742
e 426 561
e 365 426
e 426 562
e 20 21
e 20 66
e 20 67
e 20 69
e 20 23
e 20 71
e 20 154
e 20 73
e 20 137
e 20 88
e 20 77
e 501 646
e 16 501
e 216 743
e 188 744
e 188 745
e 188 746
e 115 188
e 188 211
e 188 257
e 11 188
e 188 488
e 188 214
e 27 188
e 188 307
e 188 489
e 188 747
e 188 506
e 188 490
e 188 315
e 188 318
e 188 393
e 188 551
e 188 414
e 188 748
e 117 188
e 188 749
e 107 188
e 188 750
e 188 332
e 188 194
e 188 226
e 188 751
e 188 752
e 188 472
e 188 753
e 188 754
e 188 340
e 188 341
e 188 755
e 188 756
e 188 344
e 188 255
e 101 188
e 188 757
e 188 498
e 188 530
e 188 758
e 480 759
e 480 481
e 479 480
e 21 760
e 760 761
e 760 762
e 365 760
e 472 760
e 760 763
e 44 168
e 168 177
e 45 168
e 553 554
e 21 208
e 115 208
e 107 208
e 15 208
e 96 208
e 119 208
e 16 208
e 658 660
e 143 764
e 117 764
e 243 628
e 38 243
e 243 629
e 243 630
e 765 766
e 244 451
e 451 452
e 100 451
e 13 707
e 88 707
e 13 767
e 481 759
e 575 587
e 48 576
e 254 576
e 576 609
e 420 768
e 404 768
e 556 769
e 556 770
e 556 557
e 556 771
e 556 772
e 556 773
e 556 774
e 127 775
e 93 127
e 100 127
e 257 776
e 548 776
e 21 475
e 21 66
e 21 22
e 21 79
e 21 23
e 21 71
e 21 154
e 21 96
e 21 777
e 21 365
e 21 76
e 21 88
e 21 479
e 21 77
e 21 80
e 71 778
e 87 778
e 137 778
e 779 780
e 779 781
e 728 779
e 340 779
e 659 782
e 659 783
e 659 686
e 659 661
e 365 761
e 472 761
e 697 701
e 449 701
e 698 701
e 88 384
e 66 152
e 71 152
e 88 152
e 9 11
e 9 215
e 9 260
e 9 14
e 9 635
e 9 646
e 9 16
e 374 375
e 115 374
e 374 470
e 374 471
e 374 472
e 374 473
e 666 667
e 561 666
e 666 669
e 427 429
e 427 784
e 427 452
e 427 433
e 544 785
e 444 785
e 218 785
e 16 785
e 750 786
e 409 412
e 107 409
e 409 561
e 409 646
e 409 562
e 16 409
e 632 787
e 633 787
e 787 788
e 682 787
e 744 750
e 667 739
e 561 667
e 667 668
e 667 669
e 411 789
e 118 789
e 210 410
e 211 410
e 274 410
e 216 410
e 217 410
e 410 790
e 218 410
e 16 410
e 65 75
e 349 350
e 349 351
e 577 599
e 517 518
e 791 792
e 791 793
e 460 794
e 564 794
e 107 794
e 217 794
e 13 299
e 299 633
e 119 299
e 218 299
e 16 299
e 299 682
e 268 795
e 268 411
e 268 625
e 268 269
e 268 270
e 268 626
e 15 268
e 268 628
e 226 268
e 118 268
e 268 693
e 55 268
e 141 268
e 268 796
e 23 128
e 71 128
e 88 128
e 13 300
e 88 300
e 218 300
e 16 300
e 189 190
e 189 191
e 189 192
e 189 193
e 189 194
e 189 195
e 189 196
e 731 732
e 731 733
e 731 734
e 731 735
e 731 736
e 731 737
e 655 797
e 5 797
e 22 66
e 66 69
e 66 449
e 23 66
e 66 71
e 66 96
e 66 75
e 24 66
e 66 76
e 66 88
e 60 66
e 362 363
e 115 745
e 393 745
e 107 745
e 745 798
e 226 745
e 16 745
e 795 796
e 143 439
e 536 537
e 10 115
e 10 799
e 10 11
e 10 13
e 10 643
e 10 119
e 10 646
e 10 218
e 10 16
e 16 800
e 461 801
e 801 802
e 173 801
e 177 801
e 45 801
e 88 387
e 211 803
e 11 803
e 16 803
e 210 211
e 210 305
e 210 257
e 170 210
e 210 548
e 173 210
e 13 301
e 16 301
e 79 804
e 804 805
e 116 806
e 548 806
e 231 806
e 232 806
e 13 302
e 119 302
e 218 302
e 703 704
e 561 703
e 703 807
e 562 703
e 703 808
e 557 769
e 129 476
e 129 131
e 129 133
e 245 685
e 141 685
e 22 67
e 22 71
e 22 155
e 22 73
e 22 75
e 22 88
e 22 77
e 48 578
e 13 303
e 88 303
e 16 303
e 305 780
e 780 809
e 780 781
e 340 780
e 44 810
e 45 810
e 782 783
e 551 746
e 746 750
e 13 304
e 119 304
e 218 304
e 16 304
e 118 411
e 48 579
e 388 811
e 388 532
e 388 812
e 143 211
e 143 144
e 13 143
e 143 145
e 143 813
e 143 440
e 119 143
e 143 814
e 143 404
e 143 248
e 143 218
e 16 143
e 257 815
e 16 815
e 204 205
e 679 680
e 156 181
e 181 183
e 221 506
e 221 223
e 221 226
e 55 221
e 221 230
e 13 389
e 88 389
e 115 518
e 115 470
e 115 214
e 115 506
e 115 315
e 115 393
e 107 115
e 115 627
e 115 239
e 115 816
e 115 752
e 115 472
e 115 817
e 115 341
e 115 529
e 115 530
e 420 818
e 85 818
e 71 818
e 87 818
e 305 611
e 412 611
e 611 819
e 611 612
e 67 820
e 23 67
e 67 77
e 11 211
e 211 213
e 13 211
e 211 322
e 145 211
e 211 216
e 211 821
e 211 822
e 211 440
e 211 823
e 211 217
e 211 824
e 211 754
e 211 344
e 211 647
e 211 790
e 161 211
e 211 825
e 211 646
e 211 255
e 211 218
e 177 211
e 16 211
e 169 360
e 169 177
e 45 169
e 16 169
e 13 826
e 13 390
e 88 390
e 218 390
e 305 766
e 13 305
e 305 809
e 119 305
e 305 612
e 88 305
e 218 305
e 16 305
e 5 766
e 88 766
e 48 580
e 257 827
e 257 828
e 257 458
e 170 257
e 257 489
e 257 429
e 13 257
e 257 705
e 257 829
e 257 258
e 257 587
e 257 749
e 257 548
e 119 257
e 257 727
e 257 728
e 231 257
e 257 340
e 173 257
e 257 444
e 161 257
e 247 257
e 218 257
e 257 499
e 16 257
e 68 69
e 68 119
e 68 218
e 12 212
e 212 494
e 212 472
e 100 212
e 212 646
e 212 763
e 212 218
e 110 212
e 16 212
e 16 799
e 11 544
e 213 544
e 415 544
e 15 544
e 544 639
e 544 646
e 218 544
e 544 674
e 16 544
e 340 725
e 161 725
e 119 830
e 218 830
e 93 775
e 12 775
e 494 775
e 117 775
e 93 94
e 93 145
e 93 95
e 93 97
e 93 98
e 93 99
e 93 101
e 93 110
e 419 420
e 71 419
e 87 419
e 139 419
e 88 419
e 404 419
e 12 485
e 13 485
e 218 485
e 428 524
e 428 526
e 428 527
e 428 639
e 417 428
e 428 831
e 71 420
e 86 420
e 137 420
e 404 420
e 11 12
e 11 275
e 11 13
e 11 270
e 11 415
e 11 15
e 11 217
e 11 832
e 11 218
e 11 177
e 11 16
e 71 486
e 88 486
e 3 4
e 3 833
e 3 5
e 3 343
e 625 834
e 625 628
e 625 835
e 625 631
e 275 518
e 518 519
e 509 518
e 518 621
e 518 520
e 518 521
e 44 836
e 44 49
e 44 837
e 44 838
e 44 749
e 44 171
e 44 839
e 32 44
e 44 840
e 44 174
e 44 841
e 44 175
e 44 842
e 44 45
e 44 843
e 44 178
e 461 844
e 781 844
e 340 844
e 173 844
e 48 581
e 650 652
e 274 344
e 218 274
e 4 107
e 13 487
e 101 487
e 16 487
e 155 845
e 705 827
e 548 827
e 654 656
e 16 846
e 48 582
e 673 719
e 101 673
e 618 673
e 5 655
e 488 847
e 332 488
e 193 488
e 194 488
e 488 566
e 16 488
e 190 191
e 190 192
e 190 193
e 190 464
e 470 471
e 213 413
e 107 213
e 15 213
e 213 726
e 119 213
e 213 639
e 32 213
e 213 431
e 213 218
e 45 213
e 16 213
e 214 275
e 13 214
e 117 214
e 107 214
e 15 214
e 119 214
e 214 218
e 16 214
e 471 762
e 365 471
e 471 472
e 471 473
e 40 153
e 40 159
e 40 160
e 40 570
e 40 41
e 40 42
e 621 634
e 344 634
e 48 583
e 632 633
e 632 788
e 632 682
e 71 130
e 88 130
e 614 848
e 16 848
e 524 849
e 48 849
e 527 849
e 144 449
e 144 145
e 144 684
e 269 270
e 412 850
e 847 850
e 476 851
e 71 476
e 88 476
e 27 458
e 13 27
e 27 551
e 27 31
e 27 173
e 27 498
e 524 525
e 524 527
e 505 508
e 505 519
e 230 505
e 258 828
e 548 828
e 340 828
e 247 828
e 71 852
e 87 852
e 88 852
e 689 693
e 318 853
e 28 306
e 13 306
e 226 306
e 119 306
e 88 306
e 306 498
e 16 306
e 71 854
e 458 459
e 458 460
e 317 458
e 360 458
e 458 462
e 45 458
e 48 855
e 360 836
e 45 836
e 13 308
e 119 308
e 88 308
e 218 308
e 16 308
e 13 309
e 28 460
e 28 29
e 28 856
e 28 336
e 28 31
e 28 857
e 28 858
e 28 498
e 170 317
e 170 360
e 170 548
e 170 177
e 45 170
e 16 170
e 442 443
e 16 442
e 489 714
e 489 548
e 341 489
e 107 747
e 859 860
e 218 859
e 275 412
e 412 847
e 412 612
e 16 412
e 23 69
e 69 71
e 41 69
e 69 73
e 24 69
e 60 69
e 107 506
e 230 506
e 250 449
e 145 250
e 244 452
e 145 244
e 37 244
e 38 244
e 100 244
e 244 861
e 244 622
e 244 455
e 244 248
e 80 244
e 404 862
e 109 429
e 429 706
e 117 429
e 429 863
e 429 444
e 429 432
e 532 811
e 811 812
e 79 449
e 79 145
e 71 79
e 79 864
e 24 79
e 79 865
e 60 79
e 79 805
e 79 80
e 12 13
e 12 494
e 12 117
e 12 97
e 12 119
e 12 100
e 12 218
e 12 110
e 13 391
e 88 391
e 37 245
e 38 245
e 141 245
e 48 584
e 13 311
e 88 311
e 15 275
e 275 635
e 275 646
e 218 275
e 16 275
e 13 312
e 312 633
e 88 312
e 16 312
e 312 682
e 433 784
e 227 866
e 620 866
e 732 734
e 561 732
e 669 732
e 732 867
e 562 742
e 13 868
e 13 313
e 13 709
e 13 316
e 13 317
e 13 318
e 13 319
e 13 393
e 13 493
e 13 320
e 13 869
e 13 321
e 13 322
e 13 494
e 13 870
e 13 323
e 13 324
e 13 260
e 13 711
e 13 326
e 13 327
e 13 328
e 13 712
e 13 394
e 13 329
e 13 330
e 13 331
e 13 713
e 13 398
e 13 333
e 13 399
e 13 334
e 13 335
e 13 336
e 13 337
e 13 118
e 13 119
e 13 871
e 13 31
e 13 472
e 13 340
e 13 341
e 13 343
e 13 137
e 13 88
e 13 345
e 13 346
e 13 248
e 13 110
e 13 347
e 13 16
e 490 750
e 460 564
e 29 460
e 460 872
e 336 460
e 119 460
e 460 755
e 460 857
e 460 873
e 705 829
e 643 705
e 594 705
e 340 705
e 247 705
e 498 705
e 594 829
e 829 874
e 247 829
e 340 491
e 71 153
e 41 153
e 73 153
e 60 153
e 449 697
e 87 875
e 191 192
e 191 194
e 191 195
e 191 464
e 532 812
e 433 876
e 351 876
e 88 492
e 218 492
e 16 492
e 750 877
e 770 772
e 770 773
e 217 564
e 792 793
e 392 878
e 392 402
e 392 403
e 36 38
e 88 709
e 29 31
e 29 498
e 131 477
e 71 131
e 131 879
e 74 131
e 88 131
e 131 478
e 683 880
e 45 880
e 525 526
e 525 527
e 48 585
e 48 49
e 48 586
e 48 254
e 48 588
e 48 171
e 48 881
e 48 882
e 48 883
e 48 591
e 48 884
e 48 592
e 48 593
e 48 594
e 48 596
e 48 885
e 48 886
e 48 597
e 48 598
e 48 887
e 48 601
e 48 602
e 48 603
e 48 604
e 48 605
e 48 607
e 48 255
e 48 608
e 48 176
e 45 48
e 695 820
e 77 820
e 87 847
e 404 888
e 16 888
e 71 477
e 318 889
e 612 819
e 646 819
e 109 863
e 109 110
e 370 452
e 100 452
e 247 452
e 526 527
e 526 639
e 156 526
e 526 640
e 734 735
e 734 738
e 734 867
e 222 228
e 432 706
e 594 890
e 874 890
e 612 890
e 71 82
e 82 88
e 107 315
e 16 315
e 85 891
e 71 891
e 87 891
e 88 891
e 258 548
e 258 728
e 247 258
e 218 258
e 88 316
e 317 749
e 119 317
e 173 317
e 16 317
e 318 414
e 261 318
e 318 892
e 318 340
e 318 893
e 88 318
e 16 318
e 49 594
e 45 49
e 77 695
e 119 319
e 88 319
e 218 319
e 16 319
e 107 393
e 119 393
e 88 393
e 393 763
e 218 393
e 16 393
e 119 493
e 88 493
e 218 493
e 16 493
e 551 750
e 226 551
e 551 751
e 370 453
e 370 371
e 370 454
e 119 320
e 88 320
e 218 320
e 16 320
e 71 851
e 856 858
e 45 837
e 594 894
e 413 726
e 161 413
e 587 590
e 735 737
e 340 414
e 87 414
e 88 414
e 116 118
e 116 231
e 557 772
e 557 773
e 343 833
e 88 321
e 415 643
e 415 832
e 415 646
e 218 415
e 216 860
e 218 860
e 154 449
e 449 698
e 449 865
e 77 449
e 60 449
e 561 704
e 704 807
e 562 704
e 704 808
e 71 132
e 88 132
e 322 635
e 218 322
e 177 322
e 45 322
e 16 322
e 110 494
e 223 509
e 223 225
e 223 226
e 55 223
e 223 686
e 223 229
e 223 230
e 16 870
e 145 218
e 60 145
e 145 805
e 16 145
e 80 145
e 332 748
e 88 323
e 216 217
e 216 344
e 216 218
e 45 216
e 16 216
e 107 117
e 117 239
e 117 817
e 117 444
e 360 838
e 45 838
e 360 749
e 360 461
e 360 839
e 173 360
e 174 360
e 360 841
e 175 360
e 45 360
e 177 749
e 45 749
e 548 895
e 16 895
e 107 834
e 834 835
e 255 834
e 83 85
e 71 83
e 83 86
e 83 87
e 83 88
e 83 404
e 227 325
e 325 620
e 218 325
e 16 325
e 71 260
e 225 260
e 119 260
e 88 260
e 218 260
e 16 260
e 264 896
e 264 897
e 16 898
e 809 899
e 809 900
e 628 690
e 88 711
e 88 326
e 95 97
e 14 16
e 32 589
e 589 600
e 88 327
e 527 639
e 527 831
e 527 640
e 755 872
e 872 873
e 568 569
e 71 84
e 23 71
e 23 154
e 23 133
e 23 73
e 23 76
e 23 77
e 45 821
e 16 821
e 173 461
e 461 462
e 45 461
e 351 433
e 100 371
e 45 822
e 16 822
e 246 628
e 141 246
e 88 394
e 88 395
e 171 177
e 45 171
e 226 507
e 227 507
e 626 643
e 626 628
e 107 332
e 107 816
e 107 752
e 107 338
e 107 472
e 107 817
e 107 344
e 107 255
e 107 763
e 107 530
e 16 107
e 901 902
e 423 901
e 901 903
e 16 643
e 230 508
e 71 85
e 85 86
e 85 87
e 85 805
e 15 904
e 15 635
e 15 472
e 15 341
e 15 646
e 15 637
e 15 674
e 15 16
e 70 77
e 159 160
e 159 570
e 41 159
e 159 197
e 771 772
e 771 773
e 350 628
e 594 905
e 340 905
e 160 570
e 519 542
e 365 519
e 519 520
e 519 521
e 230 519
e 71 154
e 71 155
e 71 133
e 71 96
e 71 74
e 71 75
e 24 71
e 71 76
e 71 86
e 71 87
e 71 137
e 71 138
e 71 139
e 71 88
e 71 478
e 71 479
e 71 404
e 71 906
e 71 77
e 71 907
e 60 71
e 71 805
e 71 80
e 88 330
e 750 753
e 750 754
e 750 908
e 255 750
e 365 762
e 616 909
e 618 909
e 72 73
e 192 193
e 192 194
e 192 195
e 192 464
e 192 197
e 365 561
e 561 669
e 561 814
e 561 562
e 32 416
e 562 668
e 633 910
e 633 788
e 633 682
e 172 177
e 45 172
e 154 698
e 154 911
e 60 154
e 559 560
e 88 331
e 194 332
e 88 332
e 101 332
e 16 332
e 88 713
e 41 570
e 42 570
e 155 365
e 155 599
e 88 155
e 247 547
e 537 538
e 403 537
e 537 912
e 224 227
e 30 913
e 32 913
e 590 595
e 75 133
e 896 897
e 627 628
e 628 691
e 628 692
e 226 628
e 628 631
e 509 520
e 230 509
e 344 621
e 45 839
e 757 914
e 88 261
e 59 60
e 119 915
e 88 398
e 805 864
e 226 333
e 30 333
e 119 333
e 32 333
e 88 333
e 218 333
e 16 333
e 402 878
e 118 430
e 76 96
e 88 96
e 96 479
e 16 777
e 193 195
e 193 464
e 16 193
e 194 464
e 194 498
e 16 194
e 417 434
e 177 802
e 45 802
e 698 911
e 522 542
e 97 98
e 97 99
e 97 100
e 97 101
e 97 110
e 16 97
e 55 225
e 88 225
e 16 823
e 594 781
e 594 874
e 340 594
e 88 399
e 88 400
e 88 401
e 16 335
e 616 814
e 616 617
e 101 616
e 616 618
e 548 728
e 232 548
e 161 548
e 247 548
e 16 548
e 340 781
e 161 781
e 226 227
e 55 226
e 226 755
e 226 228
e 226 757
e 16 226
e 161 726
e 30 31
e 30 32
e 30 599
e 30 646
e 30 498
e 16 30
e 217 218
e 45 217
e 16 217
e 612 874
e 340 874
e 365 472
e 365 521
e 365 562
e 41 197
e 88 336
e 336 858
e 16 336
e 119 239
e 32 239
e 218 239
e 177 239
e 45 239
e 16 239
e 119 497
e 88 337
e 16 337
e 530 816
e 118 119
e 118 218
e 16 118
e 31 119
e 119 338
e 119 339
e 119 340
e 119 341
e 119 343
e 119 790
e 119 646
e 119 346
e 101 119
e 119 498
e 119 248
e 119 218
e 16 119
e 717 751
e 530 752
e 772 773
e 772 774
e 24 73
e 73 77
e 177 916
e 45 916
e 16 871
e 177 917
e 45 917
e 16 917
e 31 32
e 31 218
e 16 31
e 669 740
e 472 918
e 686 918
e 431 639
e 639 640
e 218 338
e 16 338
e 651 652
e 472 686
e 472 646
e 255 472
e 472 763
e 16 472
e 88 339
e 218 339
e 16 339
e 218 636
e 340 728
e 218 919
e 16 919
e 255 824
e 177 824
e 45 824
e 161 231
e 899 900
e 899 920
e 340 729
e 88 340
e 161 340
e 16 340
e 74 88
e 32 599
e 32 600
e 32 921
e 32 45
e 45 840
e 37 141
e 37 247
e 422 423
e 227 620
e 24 60
e 24 80
e 16 341
e 173 177
e 45 173
e 110 863
e 88 342
e 16 342
e 161 232
e 99 100
e 174 177
e 45 174
e 218 444
e 101 814
e 618 814
e 161 729
e 218 729
e 230 521
e 88 343
e 218 343
e 16 343
e 402 403
e 38 141
e 38 247
e 195 464
e 403 912
e 76 88
e 900 920
e 137 922
e 137 923
e 86 87
e 86 88
e 86 404
e 55 686
e 55 228
e 55 522
e 55 229
e 55 230
e 55 670
e 87 137
e 87 88
e 87 924
e 45 921
e 16 717
e 101 719
e 100 456
e 100 110
e 455 861
e 88 137
e 16 137
e 755 757
e 755 873
e 45 841
e 645 646
e 16 645
e 756 758
e 344 790
e 218 344
e 16 344
e 88 138
e 138 404
e 88 139
e 139 404
e 88 345
e 88 346
e 88 404
e 88 499
e 88 199
e 88 407
e 88 347
e 16 88
e 45 606
e 218 647
e 16 647
e 218 790
e 230 522
e 16 345
e 101 617
e 617 618
e 16 431
e 161 218
e 177 825
e 45 825
e 682 910
e 16 646
e 176 255
e 807 808
e 682 788
e 608 683
e 45 608
e 16 346
e 101 618
e 16 101
e 404 405
e 16 404
e 498 620
e 218 620
e 60 77
e 16 248
e 176 218
e 177 218
e 16 218
e 175 177
e 45 175
e 60 80
e 902 903
e 178 230
e 42 197
e 423 903
e 16 347
e 45 176
e 16 176
e 45 177
e 16 177
e 177 178
e 16 45
e 45 843
e 45 178
e 16 572
