CliquerOutput/bio-CE-GT.out
size=8, weight=8:   8 13 16 51 52 119 257 340
